543 5
10 10 10 10 10 

0 0 0 0 0 0 5 2 14 26 38 50 
0 0 0 0 0 0 3 3 5 7 
3 0 1 0 0 0 1 4 
6 0 1 0 0 0 2 11 6 
2 0 3 0 0 0 2 11 8 
1 0 4 0 0 0 1 8 
1 0 4 0 0 0 1 8 
8 0 4 0 0 0 1 9 
8 0 1 0 0 0 1 10 
10 0 3 0 0 0 1 12 
6 0 1 0 0 0 2 12 473 
7 0 3 0 0 0 1 13 
0 0 0 0 0 0 1 62 
0 0 0 0 0 0 2 15 16 
6 1 0 0 0 0 2 21 17 
5 4 0 0 0 0 2 21 19 
9 2 0 0 0 0 1 18 
6 4 0 0 0 0 1 19 
1 3 0 0 0 0 1 20 
10 3 0 0 0 0 1 22 
9 2 0 0 0 0 2 22 453 
9 2 0 0 0 0 2 24 23 
8 3 0 0 0 0 1 25 
5 1 0 0 0 0 1 25 
0 0 0 0 0 0 1 62 
0 0 0 0 0 0 1 27 
7 0 0 0 1 0 2 36 28 
9 0 0 0 3 0 2 35 29 
6 0 0 0 4 0 1 30 
2 0 0 0 3 0 1 31 
6 0 0 0 2 0 1 32 
3 0 0 0 2 0 3 34 33 392 
5 0 0 0 1 0 1 37 
9 0 0 0 1 0 1 37 
5 0 0 0 5 0 1 37 
5 0 0 0 3 0 1 37 
0 0 0 0 0 0 1 62 
0 0 0 0 0 0 3 39 44 438 
3 1 0 0 0 0 2 41 40 
10 3 0 0 0 0 2 46 42 
8 2 0 0 0 0 2 46 45 
1 2 0 0 0 0 1 43 
6 3 0 0 0 0 1 45 
7 3 0 0 0 0 1 46 
8 6 0 0 0 0 1 47 
10 2 0 0 0 0 1 47 
1 1 0 0 0 0 1 48 
3 2 0 0 0 0 1 49 
0 0 0 0 0 0 1 62 
0 0 0 0 0 0 1 51 
4 0 0 0 1 0 1 52 
3 0 0 0 2 0 2 56 53 
10 0 0 0 5 0 2 55 54 
2 0 0 0 1 0 2 59 57 
5 0 0 0 2 0 2 59 58 
4 0 0 0 3 0 1 57 
5 0 0 0 2 0 1 58 
9 0 0 0 3 0 1 60 
2 0 0 0 3 0 2 60 465 
2 0 0 0 3 0 1 61 
0 0 0 0 0 0 1 62 
0 0 0 0 0 0 5 63 105 117 159 201 
0 0 0 0 0 0 3 64 67 69 
8 1 1 1 1 0 1 65 
8 3 3 1 2 0 1 66 
3 6 2 3 2 0 1 68 
9 4 7 1 4 0 1 68 
1 5 3 2 2 0 1 70 
2 4 2 2 1 0 1 70 
5 1 2 3 1 0 1 71 
9 2 2 1 3 0 1 72 
1 2 2 5 3 0 2 75 73 
1 3 3 2 4 0 1 74 
1 3 1 1 3 0 1 76 
9 3 2 3 3 0 1 76 
5 2 2 2 4 0 2 77 527 
6 2 1 2 2 0 1 78 
7 1 2 3 1 0 1 79 
8 4 2 4 1 0 2 83 80 
1 3 4 2 2 0 2 87 81 
9 2 3 5 5 0 1 82 
6 1 2 2 4 0 2 103 84 
8 2 4 1 1 0 2 90 85 
2 2 3 1 1 0 1 85 
3 2 2 4 2 0 1 86 
7 1 2 4 5 0 1 88 
1 2 2 2 3 0 1 88 
8 4 1 4 2 0 2 100 89 
6 3 3 2 3 0 2 98 91 
10 3 1 2 2 0 2 100 91 
6 2 2 2 3 0 1 92 
4 1 7 1 2 0 2 102 93 
10 2 1 1 3 0 1 94 
1 2 3 3 2 0 1 95 
2 2 2 1 3 0 1 96 
6 3 7 1 6 0 1 97 
4 3 3 4 3 0 1 99 
9 3 2 1 2 0 1 99 
6 2 1 3 1 0 1 101 
1 2 1 4 2 0 1 101 
9 3 2 5 4 0 1 104 
4 1 3 4 1 0 1 104 
3 3 2 5 1 0 1 104 
0 0 0 0 0 0 1 543 
0 0 0 0 0 0 3 106 112 115 
2 1 0 0 0 0 1 107 
9 2 0 0 0 0 1 108 
2 3 0 0 0 0 1 109 
2 3 0 0 0 0 2 110 170 
10 3 0 0 0 0 2 114 111 
7 1 0 0 0 0 1 113 
2 3 0 0 0 0 1 113 
2 1 0 0 0 0 1 116 
6 2 0 0 0 0 1 116 
5 6 0 0 0 0 1 116 
0 0 0 0 0 0 5 243 275 307 319 351 
0 0 0 0 0 0 2 118 119 
3 0 1 1 1 1 2 122 120 
1 0 2 4 3 4 2 122 120 
2 0 2 1 3 3 1 121 
4 0 2 4 3 2 1 123 
5 0 2 6 3 2 1 123 
6 0 1 1 1 2 1 124 
4 0 1 2 1 3 1 125 
1 0 4 3 2 2 1 126 
3 0 3 6 2 2 2 128 127 
9 0 4 3 3 3 1 129 
9 0 2 2 4 3 1 129 
9 0 5 2 2 2 1 130 
4 0 3 1 5 4 1 131 
7 0 3 2 2 2 1 132 
3 0 1 2 3 1 1 133 
9 0 3 2 3 2 2 134 431 
5 0 3 1 4 2 2 138 135 
10 0 3 5 1 1 2 137 136 
3 0 3 2 2 4 2 140 139 
5 0 2 3 3 3 2 140 139 
2 0 2 1 1 3 2 140 139 
8 0 2 3 1 4 1 141 
3 0 3 4 1 5 1 141 
6 0 4 2 3 2 1 142 
5 0 3 1 4 3 2 144 143 
4 0 2 1 3 1 1 145 
9 0 1 2 3 2 1 145 
3 0 2 2 3 3 1 146 
4 0 1 1 3 1 2 148 147 
5 0 2 6 1 1 2 151 149 
1 0 2 3 3 2 2 151 149 
7 0 5 1 4 6 1 150 
9 0 2 5 1 1 2 153 152 
6 0 2 2 3 1 2 153 152 
7 0 5 1 4 5 1 154 
8 0 2 3 1 2 1 154 
10 0 3 3 4 5 1 155 
7 0 4 1 2 2 1 156 
5 0 1 2 2 1 1 157 
8 0 2 3 2 2 1 158 
0 0 0 0 0 0 1 543 
0 0 0 0 0 0 2 160 161 
2 0 1 1 1 1 2 164 163 
1 0 2 3 4 4 1 162 
8 0 2 2 3 5 1 163 
10 0 2 5 3 3 1 165 
1 0 2 2 2 2 1 165 
6 0 3 1 1 1 1 166 
7 0 4 2 4 1 1 167 
4 0 4 1 4 2 1 168 
4 0 1 5 1 4 3 171 169 349 
4 0 1 3 2 3 1 170 
4 0 3 4 2 5 1 172 
2 0 3 3 2 3 1 172 
5 0 3 4 2 1 1 173 
3 0 1 3 1 5 1 174 
4 0 2 3 2 3 1 175 
9 0 2 2 3 4 1 176 
1 0 1 2 4 2 3 179 178 177 
7 0 3 4 2 4 2 183 181 
6 0 3 3 5 1 1 180 
1 0 5 5 7 2 2 183 182 
6 0 3 4 1 2 1 181 
6 0 3 2 3 1 1 182 
2 0 3 1 1 2 2 188 184 
8 0 2 4 1 2 2 188 184 
6 0 3 2 2 3 1 185 
4 0 1 2 4 2 1 186 
3 0 2 1 2 2 2 189 187 
9 0 3 2 1 1 1 190 
2 0 2 2 4 2 1 190 
2 0 3 3 2 1 3 195 193 192 
3 0 6 4 2 3 1 191 
5 0 2 4 5 2 2 195 192 
2 0 1 1 1 4 1 194 
7 0 4 1 2 2 1 194 
1 0 2 2 2 1 1 196 
7 0 2 1 3 2 1 196 
4 0 3 1 3 3 1 197 
2 0 1 2 1 1 1 198 
5 0 4 2 3 5 1 199 
4 0 2 1 2 3 1 200 
0 0 0 0 0 0 1 543 
0 0 0 0 0 0 3 202 225 241 
9 1 1 1 1 0 1 203 
8 2 1 2 3 0 1 204 
6 1 3 4 4 0 1 205 
5 4 5 2 2 0 1 206 
1 1 2 2 3 0 2 240 207 
4 2 1 3 1 0 1 208 
6 5 2 3 2 0 1 209 
1 4 1 1 2 0 1 210 
7 5 5 2 1 0 2 239 211 
10 1 2 3 3 0 1 212 
6 4 1 3 1 0 1 213 
1 1 3 4 1 0 1 214 
4 5 1 1 2 0 2 238 215 
6 2 1 3 3 0 3 237 236 216 
8 1 2 2 3 0 1 217 
9 2 3 1 3 0 1 218 
8 2 3 3 3 0 1 219 
7 2 2 4 1 0 1 220 
1 4 2 3 4 0 2 235 221 
5 1 3 4 5 0 3 234 233 222 
10 1 1 2 2 0 1 223 
4 2 1 3 1 0 1 224 
1 2 3 3 1 0 1 226 
6 3 3 1 3 0 1 226 
5 6 6 3 3 0 1 227 
3 3 1 3 1 0 1 228 
10 3 2 3 1 0 1 229 
1 2 1 1 3 0 1 230 
9 1 2 2 5 0 1 231 
2 2 5 2 4 0 1 232 
1 2 3 3 4 0 2 242 401 
2 2 3 1 2 0 1 242 
6 1 1 2 4 0 1 242 
1 4 2 3 5 0 1 242 
4 1 5 2 1 0 1 242 
5 5 3 4 1 0 1 242 
2 3 4 3 4 0 1 242 
1 1 5 2 2 0 1 242 
8 4 3 4 3 0 1 242 
10 2 2 2 2 0 1 242 
0 0 0 0 0 0 1 543 
0 0 0 0 0 0 2 244 265 
5 0 1 1 1 0 1 245 
9 0 1 3 2 0 1 246 
1 0 1 4 1 0 2 247 313 
7 0 3 4 2 0 1 248 
9 0 3 5 3 0 2 257 249 
8 0 4 3 3 0 1 250 
4 0 2 2 2 0 1 251 
2 0 4 4 3 0 3 260 254 252 
1 0 2 2 1 0 2 256 253 
10 0 5 1 4 0 3 262 259 255 
3 0 1 3 3 0 2 262 258 
8 0 2 3 3 0 1 258 
3 0 3 3 4 0 1 258 
1 0 3 1 2 0 1 258 
6 0 2 1 2 0 1 261 
1 0 8 1 4 0 1 261 
4 0 2 5 1 0 1 262 
4 0 4 4 3 0 1 263 
10 0 1 5 5 0 1 263 
10 0 2 2 2 0 1 264 
5 0 2 2 1 0 2 273 266 
10 0 2 1 2 0 2 273 266 
1 0 3 1 1 0 1 267 
3 0 3 4 2 0 1 268 
1 0 1 2 2 0 1 269 
6 0 1 2 2 0 1 270 
8 0 2 1 2 0 1 271 
1 0 1 1 3 0 1 272 
9 0 1 2 4 0 1 274 
1 0 5 2 5 0 1 274 
0 0 0 0 0 0 1 543 
0 0 0 0 0 0 2 276 305 
8 1 1 1 0 0 2 277 377 
3 3 3 4 0 0 1 278 
6 4 3 1 0 0 1 279 
5 2 1 3 0 0 1 280 
10 2 1 2 0 0 2 304 281 
8 2 3 5 0 0 1 282 
4 2 4 1 0 0 1 283 
2 4 1 5 0 0 5 303 302 296 289 284 
9 1 2 2 0 0 1 285 
8 2 2 4 0 0 2 291 286 
8 6 3 3 0 0 1 287 
4 1 3 2 0 0 1 288 
8 4 2 5 0 0 1 290 
6 2 2 2 0 0 1 291 
2 1 3 1 0 0 1 292 
7 2 3 3 0 0 1 292 
4 1 6 4 0 0 2 301 293 
8 4 5 4 0 0 1 294 
4 2 1 1 0 0 1 295 
2 1 2 2 0 0 1 297 
9 3 3 2 0 0 1 297 
3 3 2 3 0 0 1 298 
2 1 4 1 0 0 1 299 
7 1 1 3 0 0 1 300 
9 3 1 1 0 0 1 306 
7 4 4 2 0 0 1 306 
10 4 2 2 0 0 1 306 
5 2 2 4 0 0 1 306 
8 4 3 1 0 0 1 306 
1 3 2 1 0 0 1 306 
0 0 0 0 0 0 1 543 
0 0 0 0 0 0 2 308 315 
4 0 1 0 0 0 3 317 312 309 
4 0 3 0 0 0 1 310 
9 0 1 0 0 0 1 311 
1 0 1 0 0 0 2 313 523 
4 0 3 0 0 0 1 313 
10 0 4 0 0 0 1 314 
1 0 4 0 0 0 1 316 
4 0 2 0 0 0 1 316 
2 0 2 0 0 0 1 318 
7 0 4 0 0 0 1 318 
0 0 0 0 0 0 5 383 405 427 449 471 
0 0 0 0 0 0 2 320 349 
2 1 1 0 0 1 1 321 
4 1 2 0 0 1 1 322 
5 2 4 0 0 2 1 323 
5 1 5 0 0 1 1 324 
7 3 3 0 0 2 2 348 325 
10 5 3 0 0 2 1 326 
7 1 2 0 0 4 1 327 
5 2 2 0 0 4 5 347 346 345 333 328 
3 1 5 0 0 1 1 329 
3 2 6 0 0 5 2 334 330 
8 3 2 0 0 5 1 331 
4 3 5 0 0 4 1 332 
2 1 3 0 0 3 2 344 335 
8 2 5 0 0 4 2 344 336 
8 1 2 0 0 1 2 344 337 
1 2 1 0 0 4 1 336 
2 5 1 0 0 2 1 337 
9 2 4 0 0 2 1 338 
10 1 1 0 0 2 1 339 
1 2 2 0 0 2 1 340 
9 4 3 0 0 5 1 341 
5 2 1 0 0 2 1 342 
7 3 2 0 0 2 1 343 
7 6 1 0 0 5 1 350 
2 4 1 0 0 1 1 350 
8 5 2 0 0 1 2 350 491 
3 3 2 0 0 2 1 350 
8 1 2 0 0 2 1 350 
6 3 1 0 0 2 1 350 
6 3 1 0 0 1 1 350 
0 0 0 0 0 0 1 543 
0 0 0 0 0 0 2 352 381 
5 1 1 0 1 0 1 353 
9 2 6 0 2 0 2 380 354 
1 2 3 0 1 0 1 355 
9 2 1 0 2 0 2 379 356 
8 3 3 0 4 0 3 378 377 357 
3 3 2 0 3 0 2 376 358 
7 3 3 0 4 0 2 375 359 
3 2 1 0 5 0 1 360 
8 3 5 0 1 0 1 361 
3 3 2 0 3 0 1 362 
3 4 1 0 3 0 1 363 
9 2 2 0 4 0 2 374 364 
1 1 2 0 3 0 1 365 
5 3 3 0 6 0 1 366 
4 1 5 0 2 0 1 367 
4 1 3 0 3 0 1 368 
8 3 2 0 2 0 1 369 
3 1 4 0 1 0 1 370 
2 5 2 0 2 0 1 371 
1 5 4 0 2 0 1 372 
9 3 3 0 2 0 1 373 
6 1 1 0 3 0 1 382 
1 3 3 0 2 0 1 382 
3 3 3 0 4 0 1 382 
6 2 1 0 2 0 1 382 
9 1 2 0 1 0 1 382 
1 4 1 0 1 0 1 382 
10 4 4 0 3 0 1 382 
2 2 1 0 2 0 2 382 513 
6 2 1 0 1 0 1 382 
0 0 0 0 0 0 1 543 
0 0 0 0 0 0 3 384 394 399 
10 0 0 1 1 0 2 403 385 
2 0 0 2 1 0 1 386 
5 0 0 3 4 0 1 387 
10 0 0 1 4 0 1 388 
8 0 0 4 5 0 1 389 
10 0 0 2 1 0 2 390 527 
8 0 0 3 4 0 2 402 391 
7 0 0 2 2 0 1 392 
8 0 0 3 4 0 1 393 
7 0 0 3 1 0 2 401 395 
2 0 0 4 1 0 2 402 396 
10 0 0 2 3 0 1 396 
4 0 0 4 3 0 1 397 
7 0 0 3 5 0 1 398 
1 0 0 1 2 0 1 400 
3 0 0 4 2 0 1 401 
2 0 0 1 3 0 1 404 
4 0 0 2 2 0 1 404 
3 0 0 1 1 0 1 404 
9 0 0 4 1 0 1 404 
0 0 0 0 0 0 1 543 
0 0 0 0 0 0 4 406 420 424 425 
8 1 1 0 0 0 1 407 
2 4 3 0 0 0 1 408 
4 2 1 0 0 0 2 423 409 
4 3 2 0 0 0 1 410 
1 5 3 0 0 0 1 411 
9 1 1 0 0 0 1 412 
5 2 5 0 0 0 2 422 413 
4 3 4 0 0 0 1 414 
10 1 2 0 0 0 1 415 
8 2 2 0 0 0 1 416 
9 5 1 0 0 0 1 417 
10 3 3 0 0 0 1 418 
2 4 2 0 0 0 1 419 
4 1 2 0 0 0 1 421 
10 2 2 0 0 0 1 421 
1 1 2 0 0 0 2 426 526 
8 4 6 0 0 0 1 426 
10 4 4 0 0 0 1 426 
1 1 2 0 0 0 1 426 
1 1 2 0 0 0 1 426 
0 0 0 0 0 0 1 543 
0 0 0 0 0 0 1 428 
7 0 1 0 1 0 2 432 429 
5 0 4 0 2 0 2 430 537 
6 0 1 0 2 0 1 431 
10 0 4 0 2 0 2 438 433 
7 0 3 0 2 0 2 438 435 
2 0 1 0 1 0 1 434 
5 0 2 0 5 0 2 440 435 
3 0 2 0 2 0 1 436 
4 0 1 0 5 0 1 437 
5 0 1 0 2 0 2 444 439 
9 0 3 0 1 0 1 440 
2 0 6 0 2 0 2 445 441 
5 0 1 0 3 0 2 444 441 
6 0 3 0 4 0 1 442 
10 0 2 0 3 0 1 443 
7 0 4 0 2 0 1 446 
2 0 3 0 3 0 1 446 
2 0 4 0 3 0 1 446 
1 0 1 0 3 0 1 447 
1 0 3 0 2 0 1 448 
0 0 0 0 0 0 1 543 
0 0 0 0 0 0 3 450 461 469 
9 1 0 0 0 1 1 451 
6 6 0 0 0 5 1 452 
7 3 0 0 0 3 1 453 
6 2 0 0 0 2 4 468 459 454 500 
10 1 0 0 0 3 1 455 
3 2 0 0 0 3 1 456 
4 3 0 0 0 2 2 467 457 
6 3 0 0 0 3 1 458 
3 2 0 0 0 1 1 460 
2 1 0 0 0 2 1 460 
9 3 0 0 0 1 1 462 
6 2 0 0 0 2 1 462 
4 2 0 0 0 1 1 463 
9 2 0 0 0 6 1 464 
5 3 0 0 0 2 1 465 
10 6 0 0 0 2 1 466 
3 1 0 0 0 1 1 470 
1 1 0 0 0 5 1 470 
9 3 0 0 0 2 1 470 
5 3 0 0 0 3 1 470 
0 0 0 0 0 0 1 543 
0 0 0 0 0 0 2 472 532 
10 0 1 0 0 0 2 476 473 
4 0 3 0 0 0 1 474 
5 0 2 0 0 0 1 475 
5 0 1 0 0 0 2 480 477 
8 0 3 0 0 0 2 481 479 
2 0 2 0 0 0 1 478 
1 0 4 0 0 0 1 479 
7 0 1 0 0 0 1 482 
4 0 6 0 0 0 1 482 
1 0 2 0 0 0 1 482 
0 0 0 0 0 0 5 483 495 507 519 531 
0 0 0 0 0 0 2 484 516 
9 0 0 0 0 1 1 485 
7 0 0 0 0 3 2 489 486 
4 0 0 0 0 3 1 487 
7 0 0 0 0 2 2 491 488 
5 0 0 0 0 3 2 493 490 
1 0 0 0 0 4 2 493 490 
8 0 0 0 0 2 1 492 
6 0 0 0 0 2 1 492 
5 0 0 0 0 3 1 494 
4 0 0 0 0 2 1 494 
0 0 0 0 0 0 1 543 
0 0 0 0 0 0 3 496 501 503 
1 0 0 0 0 1 2 497 515 
9 0 0 0 0 3 1 498 
1 0 0 0 0 2 1 499 
6 0 0 0 0 4 1 500 
1 0 0 0 0 1 2 505 502 
6 0 0 0 0 3 1 502 
6 0 0 0 0 4 1 504 
2 0 0 0 0 2 1 504 
2 0 0 0 0 3 1 506 
2 0 0 0 0 2 1 506 
0 0 0 0 0 0 1 543 
0 0 0 0 0 0 3 508 510 517 
3 0 0 0 0 1 2 516 509 
6 0 0 0 0 2 1 511 
8 0 0 0 0 4 2 511 524 
10 0 0 0 0 3 1 512 
8 0 0 0 0 2 1 513 
6 0 0 0 0 2 1 514 
5 0 0 0 0 3 1 515 
8 0 0 0 0 2 1 518 
7 0 0 0 0 3 1 518 
8 0 0 0 0 3 1 518 
0 0 0 0 0 0 1 543 
0 0 0 0 0 0 2 520 529 
9 0 0 0 1 0 2 528 521 
9 0 0 0 3 0 2 522 534 
9 0 0 0 2 0 2 527 523 
6 0 0 0 2 0 1 524 
10 0 0 0 3 0 1 525 
6 0 0 0 5 0 1 526 
2 0 0 0 1 0 1 530 
5 0 0 0 4 0 1 530 
10 0 0 0 2 0 1 530 
10 0 0 0 2 0 1 530 
0 0 0 0 0 0 1 543 
0 0 0 0 0 0 3 532 536 541 
5 0 0 0 1 0 2 540 533 
4 0 0 0 3 0 1 534 
9 0 0 0 2 0 1 535 
4 0 0 0 4 0 1 537 
3 0 0 0 3 0 1 537 
7 0 0 0 2 0 1 538 
1 0 0 0 1 0 1 539 
5 0 0 0 5 0 1 542 
8 0 0 0 1 0 1 542 
10 0 0 0 3 0 1 542 
0 0 0 0 0 0 1 543 
0 0 0 0 0 0 0 
